44
1 0 6
2 0 48
2 1 4
3 0 47
3 1 25
3 2 9
4 0 27
4 1 41
4 2 9
4 3 37
5 0 31
5 1 21
5 2 43
5 3 28
5 4 40
6 0 39
6 1 21
6 2 6
6 3 20
6 4 28
6 5 9
7 0 25
7 1 26
7 2 10
7 3 35
7 4 24
7 5 1
7 6 8
8 0 1
8 1 9
8 2 36
8 3 12
8 4 18
8 5 43
8 6 10
8 7 3
9 0 16
9 1 5
9 2 29
9 3 1
9 4 20
9 5 13
9 6 43
9 7 40
9 8 18
10 0 22
10 1 13
10 2 15
10 3 47
10 4 23
10 5 47
10 6 24
10 7 37
10 8 19
10 9 41
11 0 3
11 1 40
11 2 20
11 3 33
11 4 4
11 5 13
11 6 29
11 7 14
11 8 35
11 9 45
11 10 41
12 0 43
12 1 27
12 2 33
12 3 2
12 4 15
12 5 15
12 6 11
12 7 23
12 8 4
12 9 26
12 10 13
12 11 43
13 0 13
13 1 17
13 2 20
13 3 27
13 4 42
13 5 12
13 6 16
13 7 26
13 8 46
13 9 26
13 10 44
13 11 38
13 12 35
14 0 13
14 1 21
14 2 45
14 3 31
14 4 13
14 5 47
14 6 39
14 7 42
14 8 36
14 9 34
14 10 47
14 11 36
14 12 44
14 13 38
15 0 48
15 1 17
15 2 9
15 3 36
15 4 6
15 5 39
15 6 2
15 7 39
15 8 34
15 9 28
15 10 35
15 11 31
15 12 10
15 13 10
15 14 8
16 0 8
16 1 1
16 2 40
16 3 1
16 4 31
16 5 18
16 6 4
16 7 27
16 8 7
16 9 40
16 10 11
16 11 33
16 12 46
16 13 10
16 14 48
16 15 34
17 0 42
17 1 13
17 2 38
17 3 13
17 4 2
17 5 4
17 6 45
17 7 33
17 8 48
17 9 45
17 10 39
17 11 35
17 12 7
17 13 29
17 14 42
17 15 11
17 16 29
18 0 47
18 1 17
18 2 28
18 3 18
18 4 17
18 5 34
18 6 29
18 7 5
18 8 6
18 9 12
18 10 21
18 11 46
18 12 28
18 13 42
18 14 20
18 15 22
18 16 41
18 17 1
19 0 13
19 1 3
19 2 22
19 3 11
19 4 2
19 5 8
19 6 2
19 7 13
19 8 4
19 9 30
19 10 47
19 11 34
19 12 46
19 13 38
19 14 4
19 15 3
19 16 11
19 17 4
19 18 29
20 0 2
20 1 44
20 2 12
20 3 19
20 4 47
20 5 7
20 6 45
20 7 29
20 8 24
20 9 38
20 10 18
20 11 19
20 12 42
20 13 42
20 14 48
20 15 43
20 16 28
20 17 17
20 18 26
20 19 40
21 0 13
21 1 41
21 2 42
21 3 41
21 4 33
21 5 32
21 6 26
21 7 27
21 8 37
21 9 26
21 10 45
21 11 24
21 12 38
21 13 30
21 14 15
21 15 41
21 16 44
21 17 14
21 18 19
21 19 28
21 20 6
22 0 38
22 1 1
22 2 46
22 3 47
22 4 2
22 5 5
22 6 8
22 7 41
22 8 31
22 9 4
22 10 11
22 11 18
22 12 21
22 13 17
22 14 7
22 15 30
22 16 46
22 17 24
22 18 27
22 19 43
22 20 23
22 21 17
23 0 48
23 1 15
23 2 29
23 3 4
23 4 20
23 5 29
23 6 36
23 7 41
23 8 38
23 9 27
23 10 33
23 11 46
23 12 3
23 13 26
23 14 12
23 15 10
23 16 16
23 17 20
23 18 38
23 19 2
23 20 21
23 21 5
23 22 35
24 0 37
24 1 14
24 2 41
24 3 39
24 4 39
24 5 14
24 6 14
24 7 25
24 8 39
24 9 47
24 10 24
24 11 36
24 12 1
24 13 42
24 14 19
24 15 47
24 16 23
24 17 34
24 18 2
24 19 10
24 20 30
24 21 43
24 22 43
24 23 29
25 0 23
25 1 39
25 2 46
25 3 33
25 4 35
25 5 6
25 6 26
25 7 16
25 8 42
25 9 25
25 10 41
25 11 37
25 12 40
25 13 10
25 14 35
25 15 43
25 16 16
25 17 15
25 18 11
25 19 2
25 20 44
25 21 1
25 22 3
25 23 12
25 24 33
26 0 1
26 1 37
26 2 36
26 3 44
26 4 21
26 5 10
26 6 45
26 7 3
26 8 32
26 9 3
26 10 21
26 11 5
26 12 26
26 13 1
26 14 31
26 15 48
26 16 42
26 17 46
26 18 7
26 19 34
26 20 6
26 21 31
26 22 33
26 23 13
26 24 47
26 25 8
27 0 34
27 1 26
27 2 42
27 3 18
27 4 33
27 5 44
27 6 44
27 7 27
27 8 26
27 9 44
27 10 33
27 11 7
27 12 5
27 13 33
27 14 32
27 15 42
27 16 21
27 17 21
27 18 34
27 19 34
27 20 4
27 21 35
27 22 19
27 23 46
27 24 3
27 25 4
27 26 22
28 0 40
28 1 48
28 2 44
28 3 15
28 4 16
28 5 19
28 6 17
28 7 36
28 8 43
28 9 23
28 10 6
28 11 8
28 12 27
28 13 34
28 14 25
28 15 34
28 16 22
28 17 2
28 18 16
28 19 23
28 20 35
28 21 29
28 22 47
28 23 25
28 24 19
28 25 8
28 26 32
28 27 18
29 0 35
29 1 35
29 2 37
29 3 12
29 4 48
29 5 6
29 6 8
29 7 5
29 8 40
29 9 16
29 10 4
29 11 21
29 12 25
29 13 2
29 14 29
29 15 15
29 16 43
29 17 26
29 18 4
29 19 42
29 20 36
29 21 44
29 22 45
29 23 40
29 24 41
29 25 26
29 26 31
29 27 48
29 28 3
30 0 37
30 1 43
30 2 20
30 3 1
30 4 26
30 5 17
30 6 22
30 7 24
30 8 33
30 9 7
30 10 38
30 11 21
30 12 23
30 13 21
30 14 20
30 15 9
30 16 9
30 17 25
30 18 37
30 19 13
30 20 27
30 21 4
30 22 47
30 23 2
30 24 16
30 25 2
30 26 30
30 27 1
30 28 29
30 29 29
31 0 17
31 1 26
31 2 6
31 3 41
31 4 28
31 5 45
31 6 10
31 7 41
31 8 2
31 9 44
31 10 38
31 11 43
31 12 28
31 13 15
31 14 33
31 15 35
31 16 45
31 17 26
31 18 11
31 19 30
31 20 4
31 21 32
31 22 35
31 23 38
31 24 20
31 25 21
31 26 22
31 27 17
31 28 7
31 29 8
31 30 7
32 0 47
32 1 7
32 2 7
32 3 9
32 4 39
32 5 30
32 6 37
32 7 47
32 8 22
32 9 5
32 10 40
32 11 9
32 12 3
32 13 30
32 14 29
32 15 39
32 16 27
32 17 11
32 18 27
32 19 8
32 20 44
32 21 48
32 22 1
32 23 30
32 24 44
32 25 16
32 26 40
32 27 10
32 28 27
32 29 9
32 30 4
32 31 30
33 0 24
33 1 27
33 2 21
33 3 28
33 4 29
33 5 4
33 6 25
33 7 35
33 8 3
33 9 5
33 10 18
33 11 23
33 12 23
33 13 7
33 14 6
33 15 46
33 16 22
33 17 30
33 18 11
33 19 42
33 20 14
33 21 31
33 22 40
33 23 24
33 24 11
33 25 37
33 26 27
33 27 15
33 28 41
33 29 12
33 30 2
33 31 38
33 32 7
34 0 18
34 1 36
34 2 43
34 3 15
34 4 23
34 5 27
34 6 10
34 7 1
34 8 46
34 9 44
34 10 8
34 11 42
34 12 30
34 13 2
34 14 27
34 15 26
34 16 35
34 17 8
34 18 10
34 19 6
34 20 34
34 21 42
34 22 26
34 23 15
34 24 39
34 25 46
34 26 31
34 27 31
34 28 30
34 29 24
34 30 40
34 31 39
34 32 15
34 33 45
35 0 39
35 1 41
35 2 21
35 3 21
35 4 3
35 5 35
35 6 13
35 7 37
35 8 43
35 9 23
35 10 48
35 11 24
35 12 28
35 13 7
35 14 27
35 15 17
35 16 8
35 17 3
35 18 26
35 19 36
35 20 46
35 21 5
35 22 39
35 23 7
35 24 8
35 25 9
35 26 27
35 27 34
35 28 23
35 29 48
35 30 48
35 31 48
35 32 11
35 33 35
35 34 41
36 0 17
36 1 5
36 2 18
36 3 17
36 4 37
36 5 28
36 6 37
36 7 35
36 8 14
36 9 30
36 10 26
36 11 36
36 12 34
36 13 3
36 14 28
36 15 19
36 16 32
36 17 11
36 18 30
36 19 21
36 20 31
36 21 13
36 22 14
36 23 27
36 24 18
36 25 13
36 26 19
36 27 16
36 28 33
36 29 20
36 30 27
36 31 3
36 32 42
36 33 22
36 34 24
36 35 27
37 0 46
37 1 29
37 2 2
37 3 47
37 4 22
37 5 7
37 6 26
37 7 32
37 8 38
37 9 34
37 10 32
37 11 23
37 12 3
37 13 6
37 14 30
37 15 44
37 16 46
37 17 40
37 18 44
37 19 14
37 20 16
37 21 30
37 22 28
37 23 21
37 24 12
37 25 10
37 26 42
37 27 48
37 28 31
37 29 32
37 30 32
37 31 14
37 32 12
37 33 41
37 34 4
37 35 40
37 36 3
38 0 27
38 1 8
38 2 26
38 3 21
38 4 24
38 5 23
38 6 10
38 7 8
38 8 46
38 9 10
38 10 9
38 11 15
38 12 17
38 13 41
38 14 46
38 15 12
38 16 48
38 17 33
38 18 46
38 19 3
38 20 7
38 21 29
38 22 16
38 23 1
38 24 40
38 25 10
38 26 12
38 27 7
38 28 1
38 29 42
38 30 17
38 31 34
38 32 20
38 33 13
38 34 33
38 35 21
38 36 32
38 37 47
39 0 14
39 1 38
39 2 36
39 3 25
39 4 46
39 5 15
39 6 11
39 7 20
39 8 18
39 9 7
39 10 4
39 11 1
39 12 8
39 13 11
39 14 31
39 15 44
39 16 30
39 17 31
39 18 42
39 19 37
39 20 25
39 21 11
39 22 34
39 23 9
39 24 42
39 25 14
39 26 29
39 27 16
39 28 31
39 29 8
39 30 15
39 31 31
39 32 45
39 33 45
39 34 14
39 35 20
39 36 48
39 37 27
39 38 36
40 0 2
40 1 5
40 2 9
40 3 45
40 4 36
40 5 5
40 6 14
40 7 5
40 8 38
40 9 23
40 10 10
40 11 27
40 12 2
40 13 38
40 14 1
40 15 23
40 16 13
40 17 47
40 18 32
40 19 19
40 20 43
40 21 12
40 22 12
40 23 32
40 24 5
40 25 47
40 26 18
40 27 20
40 28 2
40 29 10
40 30 15
40 31 20
40 32 45
40 33 28
40 34 13
40 35 7
40 36 28
40 37 37
40 38 43
40 39 4
41 0 28
41 1 36
41 2 4
41 3 38
41 4 17
41 5 23
41 6 21
41 7 11
41 8 25
41 9 40
41 10 10
41 11 34
41 12 19
41 13 45
41 14 10
41 15 12
41 16 34
41 17 3
41 18 20
41 19 4
41 20 29
41 21 38
41 22 7
41 23 46
41 24 40
41 25 21
41 26 34
41 27 46
41 28 16
41 29 13
41 30 19
41 31 26
41 32 42
41 33 31
41 34 43
41 35 31
41 36 19
41 37 42
41 38 31
41 39 7
41 40 6
42 0 10
42 1 26
42 2 10
42 3 38
42 4 37
42 5 8
42 6 43
42 7 15
42 8 35
42 9 25
42 10 26
42 11 45
42 12 22
42 13 31
42 14 28
42 15 25
42 16 22
42 17 41
42 18 25
42 19 34
42 20 46
42 21 26
42 22 40
42 23 47
42 24 43
42 25 15
42 26 28
42 27 39
42 28 16
42 29 26
42 30 46
42 31 32
42 32 35
42 33 10
42 34 23
42 35 6
42 36 32
42 37 22
42 38 3
42 39 43
42 40 32
42 41 45
43 0 25
43 1 8
43 2 22
43 3 48
43 4 4
43 5 28
43 6 39
43 7 40
43 8 44
43 9 39
43 10 28
43 11 7
43 12 1
43 13 30
43 14 43
43 15 30
43 16 29
43 17 45
43 18 19
43 19 26
43 20 3
43 21 41
43 22 45
43 23 12
43 24 9
43 25 13
43 26 25
43 27 13
43 28 45
43 29 6
43 30 39
43 31 17
43 32 16
43 33 22
43 34 44
43 35 33
43 36 1
43 37 1
43 38 13
43 39 3
43 40 20
43 41 45
43 42 24
